NAME : local_1
TYPE : ATSP
DIMENSION : 6
EDGE_WEIGHT_TYPE : EXPLICIT
EDGE_WEIGHT_FORMAT : FULL_MATRIX
EDGE_WEIGHT_SECTION
0 10000000 275 10000000 243 0 
0 0 10000000 575 1061 10000000 
0 10000000 0 10000000 198 275 
0 575 10000000 0 10000000 10000000 
0 1077 198 10000000 0 243 
0 10000000 10000000 10000000 10000000 0 
EOF